Gurobi Optimizer version 9.1.2 build v9.1.2rc0 (linux64)
Thread count: 36 physical cores, 72 logical processors, using up to 32 threads
Optimize a model with 12 rows, 57 columns and 590 nonzeros
Model fingerprint: 0xf32eec78
Model has 47 quadratic constraints
Coefficient statistics:
  Matrix range     [2e-05, 3e+00]
  QMatrix range    [1e+00, 1e+00]
  QLMatrix range   [1e+00, 1e+00]
  Objective range  [8e-03, 7e-01]
  Bounds range     [1e+00, 1e+00]
  RHS range        [1e+00, 1e+00]
Presolve removed 9 rows and 0 columns

Continuous model is non-convex -- solving as a MIP.

Presolve removed 9 rows and 0 columns
Presolve time: 0.00s
Presolved: 189 rows, 57 columns, 443 nonzeros
Presolved model has 47 bilinear constraint(s)
Variable types: 57 continuous, 0 integer (0 binary)

Root relaxation: objective -1.743721e+00, 44 iterations, 0.00 seconds

    Nodes    |    Current Node    |     Objective Bounds      |     Work
 Expl Unexpl |  Obj  Depth IntInf | Incumbent    BestBd   Gap | It/Node Time

     0     0   -1.74372    0   38          -   -1.74372      -     -    0s
H    0     0                       0.6147548   -1.74372   384%     -    0s
     0     0   -1.64739    0    1    0.61475   -1.64739   368%     -    0s
H    0     0                      -1.6450460   -1.64739  0.14%     -    0s
     0     0     cutoff    0        -1.64505   -1.64505  0.00%     -    0s

Cutting planes:
  RLT: 25
  BQP: 3

Explored 1 nodes (76 simplex iterations) in 0.01 seconds
Thread count was 32 (of 72 available processors)

Solution count 2: -1.64505 0.614755 
No other solutions better than -1.64505

Optimal solution found (tolerance 1.00e-04)
Best objective -1.645045978473e+00, best bound -1.645045978473e+00, gap 0.0000%

User-callback calls 78, time in user-callback 0.00 sec
Gurobi Optimizer version 9.1.2 build v9.1.2rc0 (linux64)
Thread count: 36 physical cores, 72 logical processors, using up to 32 threads
Optimize a model with 24 rows, 125 columns and 2580 nonzeros
Model fingerprint: 0x00cf6215
Model has 105 quadratic constraints
Coefficient statistics:
  Matrix range     [5e-06, 5e+01]
  QMatrix range    [1e+00, 1e+00]
  QLMatrix range   [1e+00, 1e+00]
  Objective range  [1e-02, 1e+00]
  Bounds range     [1e+00, 1e+00]
  RHS range        [1e+00, 1e+00]
Presolve removed 10 rows and 0 columns

Continuous model is non-convex -- solving as a MIP.

Presolve removed 10 rows and 0 columns
Presolve time: 0.00s
Presolved: 429 rows, 125 columns, 2142 nonzeros
Presolved model has 105 bilinear constraint(s)
Variable types: 125 continuous, 0 integer (0 binary)

Root relaxation: objective -6.213181e+00, 126 iterations, 0.00 seconds

    Nodes    |    Current Node    |     Objective Bounds      |     Work
 Expl Unexpl |  Obj  Depth IntInf | Incumbent    BestBd   Gap | It/Node Time

     0     0   -6.21318    0   75          -   -6.21318      -     -    0s
H    0     0                       0.1206560   -6.21318  5250%     -    0s
     0     0   -4.99395    0   83    0.12066   -4.99395  4239%     -    0s
H    0     0                      -1.8450157   -4.99395   171%     -    0s
     0     0   -4.90139    0   83   -1.84502   -4.90139   166%     -    0s
     0     0   -4.73128    0   33   -1.84502   -4.73128   156%     -    0s
H    0     0                      -2.9083279   -4.73128  62.7%     -    0s
     0     0   -4.73027    0   33   -2.90833   -4.73027  62.6%     -    0s
     0     0   -4.65804    0   47   -2.90833   -4.65804  60.2%     -    0s
     0     0   -4.65694    0   56   -2.90833   -4.65694  60.1%     -    0s
     0     0   -4.63695    0   88   -2.90833   -4.63695  59.4%     -    0s
     0     0   -4.63651    0   84   -2.90833   -4.63651  59.4%     -    0s
     0     0   -4.63504    0   70   -2.90833   -4.63504  59.4%     -    0s
     0     0   -4.63356    0   88   -2.90833   -4.63356  59.3%     -    0s
     0     0   -4.63141    0   70   -2.90833   -4.63141  59.2%     -    0s
H    0     0                      -3.1227267   -4.63141  48.3%     -    0s
H    0     0                      -3.7817434   -4.63141  22.5%     -    0s
H    0     0                      -3.8232091   -4.63141  21.1%     -    0s
     0     2   -4.63141    0   70   -3.82321   -4.63141  21.1%     -    0s
*  663   318              22      -3.8504034   -4.21094  9.36%  24.2    0s
*  671   318              24      -3.8620346   -4.21094  9.03%  24.0    0s
*  698   352              23      -3.8662477   -4.21094  8.92%  23.2    0s
*  705   352              15      -3.9058523   -4.21094  7.81%  23.1    0s
*  789   352              20      -3.9125134   -4.21094  7.63%  21.3    0s
* 1209    56              19      -3.9126118   -3.92815  0.40%  15.4    0s
* 1236    56              19      -3.9130036   -3.92815  0.39%  15.2    0s
* 1252    56              20      -3.9161190   -3.92815  0.31%  15.1    0s
* 1277    24              19      -3.9161434   -3.92815  0.31%  14.9    0s
* 1279    24              20      -3.9163186   -3.92815  0.30%  14.9    0s
* 1306    24              19      -3.9164999   -3.92815  0.30%  14.7    0s
* 1350    17              22      -3.9165008   -3.91761  0.03%  14.3    0s
* 1351    17              22      -3.9166667   -3.91761  0.02%  14.3    0s
* 1373    17              24      -3.9166993   -3.91761  0.02%  14.2    0s
* 1410     6              23      -3.9167047   -3.91761  0.02%  13.9    0s
* 1412     6              24      -3.9167125   -3.91761  0.02%  13.9    0s
* 1415     6              25      -3.9167172   -3.91761  0.02%  13.9    0s
* 1423     6              24      -3.9167189   -3.91761  0.02%  13.8    0s
* 1435     6              24      -3.9167189   -3.91761  0.02%  13.7    0s
* 1443     6              24      -3.9167196   -3.91761  0.02%  13.7    0s
* 1444     6              24      -3.9167208   -3.91761  0.02%  13.6    0s

Cutting planes:
  RLT: 53
  BQP: 12
  PSD: 44

Explored 1455 nodes (20132 simplex iterations) in 0.56 seconds
Thread count was 32 (of 72 available processors)

Solution count 10: -3.91672 -3.91672 -3.91672 ... -3.9165
No other solutions better than -3.91672

Optimal solution found (tolerance 1.00e-04)
Best objective -3.916720772040e+00, best bound -3.916720772040e+00, gap 0.0000%

User-callback calls 3181, time in user-callback 0.00 sec



objective value: -3.916720772039991
objective bound: -3.916720772039991
x_opt: [1.0, 0.0, 1.0, 0.0, 0.16687891173449987, 0.0, 1.0, 1.0, 0.49255577901764874, 0.0, 0.0, 0.0, 0.7358499001126868, 0.0, 0.4531308662522258, 0.3063059269907985, 0.0, 0.0, 0.0, 0.0]
GUROBI solution time: 0.5565919876098633




